units       metal
dimension   2
boundary    p p p
newton      on
atom_style  atomic
read_data   graphene.dat
fix         f2d all enforce2d
pair_style  airebo 3.0 1 1
pair_coeff  * * CH.airebo C
timestep    0.0001

# Calculations
compute     peatom all pe/atom
compute pe  all reduce sum c_peatom
# ---
variable    ke equal ke
variable    s equal step
variable    T equal temp
variable    E equal etotal
variable    PEatom equal c_pe/count(all)
variable    Tdamp equal $(100.0*dt) # Avoid wild fluctuations by choosing appropriate damping

# Output
fix         stats all print     10000 "${s} ${T} ${E} ${ke} ${PEatom}" file energy.txt screen no

# Equilibration - create initial Maxwellian velocities at 50 K
fix         rlx all box/relax iso 0.0 vmax 0.001
minimize    1.0e-8 1.0e-8 100000 1000000
run         0
unfix       rlx

velocity    all create 300.0 12345 mom yes rot yes dist gaussian
fix         fnvt all nvt temp 300 300 ${Tdamp}
run         100000
unfix       fnvt

fix         2 all langevin 300 9700 1 1337 
fix         3 all nve 
run         1000000
unfix       2
unfix       3

fix         fnvt all nvt temp 9700 9700 ${Tdamp}
run         1000000
unfix       fnvt

write_data graphene_defect_thermal.data

fix        rlx all box/relax iso 0.0 vmax 0.001
minimize   1.0e-8 1.0e-8 100000 1000000
run        0
write_data graphene_defect_min.data