units       metal 
dimension   2 
boundary    p p p 
newton      on 
atom_style  atomic 
read_data   8250K_eq.data
fix         f2d all enforce2d
pair_style  airebo 3.0 1 1 
pair_coeff  * * CH.airebo C  
timestep    0.0001

min_style cg
minimize 1e-6 1e-8 100000 1000000
run 0
write_data 8250K_min.data