units       metal
dimension   2
boundary    p p p
newton      on
atom_style  atomic
read_data   anneal_9690K.data
fix         f2d all enforce2d
pair_style  airebo 3.0 1 1
pair_coeff  * * CH.airebo C
timestep    0.0001
variable    Tdamp equal $(100.0*dt)

dump        eq  all atom 100 thermalized_9690K.lammpstrj
dump_modify sort id scale no

velocity    all create 300.0 12345 mom yes rot yes dist gaussian
fix         fnvt all nvt temp 300 300 ${Tdamp}
run         100000

