units       metal
dimension   2
boundary    p p p
newton      on
atom_style  atomic
read_data   graphene.dat
fix         f2d all enforce2d
pair_style  airebo 3.0 1 1
pair_coeff  * * CH.airebo C
timestep    0.0001
variable    Tdamp equal $(100.0*dt)


velocity    all create 300.0 12345 mom yes rot yes dist gaussian
fix         fnvt all nvt temp 300 300 ${Tdamp}
dump        thermoDump all custom 2000 forces.dat id type x y z fx fy fz
run         100000

